Minimize
 obj: 0 X_0_1
Subject To
 out_0:
  + 1 X_0_1 + 1 X_0_2 + 1 X_0_3 + 1 X_0_4 + 1 X_0_5 + 1 X_0_6 + 1 X_0_7 + 1 X_0_8
  + 1 X_0_9 + 1 X_0_10 + 1 X_0_11 + 1 X_0_12 + 1 X_0_13 + 1 X_0_14
  = 1
 in_0:
  + 1 X_1_0 + 1 X_2_0 + 1 X_3_0 + 1 X_4_0 + 1 X_5_0 + 1 X_6_0 + 1 X_7_0 + 1 X_8_0
  + 1 X_9_0 + 1 X_10_0 + 1 X_11_0 + 1 X_12_0 + 1 X_13_0 + 1 X_14_0
  = 1
 out_1:
  + 1 X_1_0 + 1 X_1_2 + 1 X_1_3 + 1 X_1_4 + 1 X_1_5 + 1 X_1_6 + 1 X_1_7 + 1 X_1_8
  + 1 X_1_9 + 1 X_1_10 + 1 X_1_11 + 1 X_1_12 + 1 X_1_13 + 1 X_1_14
  = 1
 in_1:
  + 1 X_0_1 + 1 X_2_1 + 1 X_3_1 + 1 X_4_1 + 1 X_5_1 + 1 X_6_1 + 1 X_7_1 + 1 X_8_1
  + 1 X_9_1 + 1 X_10_1 + 1 X_11_1 + 1 X_12_1 + 1 X_13_1 + 1 X_14_1
  = 1
 out_2:
  + 1 X_2_0 + 1 X_2_1 + 1 X_2_3 + 1 X_2_4 + 1 X_2_5 + 1 X_2_6 + 1 X_2_7 + 1 X_2_8
  + 1 X_2_9 + 1 X_2_10 + 1 X_2_11 + 1 X_2_12 + 1 X_2_13 + 1 X_2_14
  = 1
 in_2:
  + 1 X_0_2 + 1 X_1_2 + 1 X_3_2 + 1 X_4_2 + 1 X_5_2 + 1 X_6_2 + 1 X_7_2 + 1 X_8_2
  + 1 X_9_2 + 1 X_10_2 + 1 X_11_2 + 1 X_12_2 + 1 X_13_2 + 1 X_14_2
  = 1
 out_3:
  + 1 X_3_0 + 1 X_3_1 + 1 X_3_2 + 1 X_3_4 + 1 X_3_5 + 1 X_3_6 + 1 X_3_7 + 1 X_3_8
  + 1 X_3_9 + 1 X_3_10 + 1 X_3_11 + 1 X_3_12 + 1 X_3_13 + 1 X_3_14
  = 1
 in_3:
  + 1 X_0_3 + 1 X_1_3 + 1 X_2_3 + 1 X_4_3 + 1 X_5_3 + 1 X_6_3 + 1 X_7_3 + 1 X_8_3
  + 1 X_9_3 + 1 X_10_3 + 1 X_11_3 + 1 X_12_3 + 1 X_13_3 + 1 X_14_3
  = 1
 out_4:
  + 1 X_4_0 + 1 X_4_1 + 1 X_4_2 + 1 X_4_3 + 1 X_4_5 + 1 X_4_6 + 1 X_4_7 + 1 X_4_8
  + 1 X_4_9 + 1 X_4_10 + 1 X_4_11 + 1 X_4_12 + 1 X_4_13 + 1 X_4_14
  = 1
 in_4:
  + 1 X_0_4 + 1 X_1_4 + 1 X_2_4 + 1 X_3_4 + 1 X_5_4 + 1 X_6_4 + 1 X_7_4 + 1 X_8_4
  + 1 X_9_4 + 1 X_10_4 + 1 X_11_4 + 1 X_12_4 + 1 X_13_4 + 1 X_14_4
  = 1
 out_5:
  + 1 X_5_0 + 1 X_5_1 + 1 X_5_2 + 1 X_5_3 + 1 X_5_4 + 1 X_5_6 + 1 X_5_7 + 1 X_5_8
  + 1 X_5_9 + 1 X_5_10 + 1 X_5_11 + 1 X_5_12 + 1 X_5_13 + 1 X_5_14
  = 1
 in_5:
  + 1 X_0_5 + 1 X_1_5 + 1 X_2_5 + 1 X_3_5 + 1 X_4_5 + 1 X_6_5 + 1 X_7_5 + 1 X_8_5
  + 1 X_9_5 + 1 X_10_5 + 1 X_11_5 + 1 X_12_5 + 1 X_13_5 + 1 X_14_5
  = 1
 out_6:
  + 1 X_6_0 + 1 X_6_1 + 1 X_6_2 + 1 X_6_3 + 1 X_6_4 + 1 X_6_5 + 1 X_6_7 + 1 X_6_8
  + 1 X_6_9 + 1 X_6_10 + 1 X_6_11 + 1 X_6_12 + 1 X_6_13 + 1 X_6_14
  = 1
 in_6:
  + 1 X_0_6 + 1 X_1_6 + 1 X_2_6 + 1 X_3_6 + 1 X_4_6 + 1 X_5_6 + 1 X_7_6 + 1 X_8_6
  + 1 X_9_6 + 1 X_10_6 + 1 X_11_6 + 1 X_12_6 + 1 X_13_6 + 1 X_14_6
  = 1
 out_7:
  + 1 X_7_0 + 1 X_7_1 + 1 X_7_2 + 1 X_7_3 + 1 X_7_4 + 1 X_7_5 + 1 X_7_6 + 1 X_7_8
  + 1 X_7_9 + 1 X_7_10 + 1 X_7_11 + 1 X_7_12 + 1 X_7_13 + 1 X_7_14
  = 1
 in_7:
  + 1 X_0_7 + 1 X_1_7 + 1 X_2_7 + 1 X_3_7 + 1 X_4_7 + 1 X_5_7 + 1 X_6_7 + 1 X_8_7
  + 1 X_9_7 + 1 X_10_7 + 1 X_11_7 + 1 X_12_7 + 1 X_13_7 + 1 X_14_7
  = 1
 out_8:
  + 1 X_8_0 + 1 X_8_1 + 1 X_8_2 + 1 X_8_3 + 1 X_8_4 + 1 X_8_5 + 1 X_8_6 + 1 X_8_7
  + 1 X_8_9 + 1 X_8_10 + 1 X_8_11 + 1 X_8_12 + 1 X_8_13 + 1 X_8_14
  = 1
 in_8:
  + 1 X_0_8 + 1 X_1_8 + 1 X_2_8 + 1 X_3_8 + 1 X_4_8 + 1 X_5_8 + 1 X_6_8 + 1 X_7_8
  + 1 X_9_8 + 1 X_10_8 + 1 X_11_8 + 1 X_12_8 + 1 X_13_8 + 1 X_14_8
  = 1
 out_9:
  + 1 X_9_0 + 1 X_9_1 + 1 X_9_2 + 1 X_9_3 + 1 X_9_4 + 1 X_9_5 + 1 X_9_6 + 1 X_9_7
  + 1 X_9_8 + 1 X_9_10 + 1 X_9_11 + 1 X_9_12 + 1 X_9_13 + 1 X_9_14
  = 1
 in_9:
  + 1 X_0_9 + 1 X_1_9 + 1 X_2_9 + 1 X_3_9 + 1 X_4_9 + 1 X_5_9 + 1 X_6_9 + 1 X_7_9
  + 1 X_8_9 + 1 X_10_9 + 1 X_11_9 + 1 X_12_9 + 1 X_13_9 + 1 X_14_9
  = 1
 out_10:
  + 1 X_10_0 + 1 X_10_1 + 1 X_10_2 + 1 X_10_3 + 1 X_10_4 + 1 X_10_5 + 1 X_10_6 + 1 X_10_7
  + 1 X_10_8 + 1 X_10_9 + 1 X_10_11 + 1 X_10_12 + 1 X_10_13 + 1 X_10_14
  = 1
 in_10:
  + 1 X_0_10 + 1 X_1_10 + 1 X_2_10 + 1 X_3_10 + 1 X_4_10 + 1 X_5_10 + 1 X_6_10 + 1 X_7_10
  + 1 X_8_10 + 1 X_9_10 + 1 X_11_10 + 1 X_12_10 + 1 X_13_10 + 1 X_14_10
  = 1
 out_11:
  + 1 X_11_0 + 1 X_11_1 + 1 X_11_2 + 1 X_11_3 + 1 X_11_4 + 1 X_11_5 + 1 X_11_6 + 1 X_11_7
  + 1 X_11_8 + 1 X_11_9 + 1 X_11_10 + 1 X_11_12 + 1 X_11_13 + 1 X_11_14
  = 1
 in_11:
  + 1 X_0_11 + 1 X_1_11 + 1 X_2_11 + 1 X_3_11 + 1 X_4_11 + 1 X_5_11 + 1 X_6_11 + 1 X_7_11
  + 1 X_8_11 + 1 X_9_11 + 1 X_10_11 + 1 X_12_11 + 1 X_13_11 + 1 X_14_11
  = 1
 out_12:
  + 1 X_12_0 + 1 X_12_1 + 1 X_12_2 + 1 X_12_3 + 1 X_12_4 + 1 X_12_5 + 1 X_12_6 + 1 X_12_7
  + 1 X_12_8 + 1 X_12_9 + 1 X_12_10 + 1 X_12_11 + 1 X_12_13 + 1 X_12_14
  = 1
 in_12:
  + 1 X_0_12 + 1 X_1_12 + 1 X_2_12 + 1 X_3_12 + 1 X_4_12 + 1 X_5_12 + 1 X_6_12 + 1 X_7_12
  + 1 X_8_12 + 1 X_9_12 + 1 X_10_12 + 1 X_11_12 + 1 X_13_12 + 1 X_14_12
  = 1
 out_13:
  + 1 X_13_0 + 1 X_13_1 + 1 X_13_2 + 1 X_13_3 + 1 X_13_4 + 1 X_13_5 + 1 X_13_6 + 1 X_13_7
  + 1 X_13_8 + 1 X_13_9 + 1 X_13_10 + 1 X_13_11 + 1 X_13_12 + 1 X_13_14
  = 1
 in_13:
  + 1 X_0_13 + 1 X_1_13 + 1 X_2_13 + 1 X_3_13 + 1 X_4_13 + 1 X_5_13 + 1 X_6_13 + 1 X_7_13
  + 1 X_8_13 + 1 X_9_13 + 1 X_10_13 + 1 X_11_13 + 1 X_12_13 + 1 X_14_13
  = 1
 out_14:
  + 1 X_14_0 + 1 X_14_1 + 1 X_14_2 + 1 X_14_3 + 1 X_14_4 + 1 X_14_5 + 1 X_14_6 + 1 X_14_7
  + 1 X_14_8 + 1 X_14_9 + 1 X_14_10 + 1 X_14_11 + 1 X_14_12 + 1 X_14_13
  = 1
 in_14:
  + 1 X_0_14 + 1 X_1_14 + 1 X_2_14 + 1 X_3_14 + 1 X_4_14 + 1 X_5_14 + 1 X_6_14 + 1 X_7_14
  + 1 X_8_14 + 1 X_9_14 + 1 X_10_14 + 1 X_11_14 + 1 X_12_14 + 1 X_13_14
  = 1
 mtz_1_2:
  + 1 U1 - 1 U2 + 14 X_1_2
  <= 13
 mtz_1_3:
  + 1 U1 - 1 U3 + 14 X_1_3
  <= 13
 mtz_1_4:
  + 1 U1 - 1 U4 + 14 X_1_4
  <= 13
 mtz_1_5:
  + 1 U1 - 1 U5 + 14 X_1_5
  <= 13
 mtz_1_6:
  + 1 U1 - 1 U6 + 14 X_1_6
  <= 13
 mtz_1_7:
  + 1 U1 - 1 U7 + 14 X_1_7
  <= 13
 mtz_1_8:
  + 1 U1 - 1 U8 + 14 X_1_8
  <= 13
 mtz_1_9:
  + 1 U1 - 1 U9 + 14 X_1_9
  <= 13
 mtz_1_10:
  + 1 U1 - 1 U10 + 14 X_1_10
  <= 13
 mtz_1_11:
  + 1 U1 - 1 U11 + 14 X_1_11
  <= 13
 mtz_1_12:
  + 1 U1 - 1 U12 + 14 X_1_12
  <= 13
 mtz_1_13:
  + 1 U1 - 1 U13 + 14 X_1_13
  <= 13
 mtz_1_14:
  + 1 U1 - 1 U14 + 14 X_1_14
  <= 13
 mtz_2_1:
  + 1 U2 - 1 U1 + 14 X_2_1
  <= 13
 mtz_2_3:
  + 1 U2 - 1 U3 + 14 X_2_3
  <= 13
 mtz_2_4:
  + 1 U2 - 1 U4 + 14 X_2_4
  <= 13
 mtz_2_5:
  + 1 U2 - 1 U5 + 14 X_2_5
  <= 13
 mtz_2_6:
  + 1 U2 - 1 U6 + 14 X_2_6
  <= 13
 mtz_2_7:
  + 1 U2 - 1 U7 + 14 X_2_7
  <= 13
 mtz_2_8:
  + 1 U2 - 1 U8 + 14 X_2_8
  <= 13
 mtz_2_9:
  + 1 U2 - 1 U9 + 14 X_2_9
  <= 13
 mtz_2_10:
  + 1 U2 - 1 U10 + 14 X_2_10
  <= 13
 mtz_2_11:
  + 1 U2 - 1 U11 + 14 X_2_11
  <= 13
 mtz_2_12:
  + 1 U2 - 1 U12 + 14 X_2_12
  <= 13
 mtz_2_13:
  + 1 U2 - 1 U13 + 14 X_2_13
  <= 13
 mtz_2_14:
  + 1 U2 - 1 U14 + 14 X_2_14
  <= 13
 mtz_3_1:
  + 1 U3 - 1 U1 + 14 X_3_1
  <= 13
 mtz_3_2:
  + 1 U3 - 1 U2 + 14 X_3_2
  <= 13
 mtz_3_4:
  + 1 U3 - 1 U4 + 14 X_3_4
  <= 13
 mtz_3_5:
  + 1 U3 - 1 U5 + 14 X_3_5
  <= 13
 mtz_3_6:
  + 1 U3 - 1 U6 + 14 X_3_6
  <= 13
 mtz_3_7:
  + 1 U3 - 1 U7 + 14 X_3_7
  <= 13
 mtz_3_8:
  + 1 U3 - 1 U8 + 14 X_3_8
  <= 13
 mtz_3_9:
  + 1 U3 - 1 U9 + 14 X_3_9
  <= 13
 mtz_3_10:
  + 1 U3 - 1 U10 + 14 X_3_10
  <= 13
 mtz_3_11:
  + 1 U3 - 1 U11 + 14 X_3_11
  <= 13
 mtz_3_12:
  + 1 U3 - 1 U12 + 14 X_3_12
  <= 13
 mtz_3_13:
  + 1 U3 - 1 U13 + 14 X_3_13
  <= 13
 mtz_3_14:
  + 1 U3 - 1 U14 + 14 X_3_14
  <= 13
 mtz_4_1:
  + 1 U4 - 1 U1 + 14 X_4_1
  <= 13
 mtz_4_2:
  + 1 U4 - 1 U2 + 14 X_4_2
  <= 13
 mtz_4_3:
  + 1 U4 - 1 U3 + 14 X_4_3
  <= 13
 mtz_4_5:
  + 1 U4 - 1 U5 + 14 X_4_5
  <= 13
 mtz_4_6:
  + 1 U4 - 1 U6 + 14 X_4_6
  <= 13
 mtz_4_7:
  + 1 U4 - 1 U7 + 14 X_4_7
  <= 13
 mtz_4_8:
  + 1 U4 - 1 U8 + 14 X_4_8
  <= 13
 mtz_4_9:
  + 1 U4 - 1 U9 + 14 X_4_9
  <= 13
 mtz_4_10:
  + 1 U4 - 1 U10 + 14 X_4_10
  <= 13
 mtz_4_11:
  + 1 U4 - 1 U11 + 14 X_4_11
  <= 13
 mtz_4_12:
  + 1 U4 - 1 U12 + 14 X_4_12
  <= 13
 mtz_4_13:
  + 1 U4 - 1 U13 + 14 X_4_13
  <= 13
 mtz_4_14:
  + 1 U4 - 1 U14 + 14 X_4_14
  <= 13
 mtz_5_1:
  + 1 U5 - 1 U1 + 14 X_5_1
  <= 13
 mtz_5_2:
  + 1 U5 - 1 U2 + 14 X_5_2
  <= 13
 mtz_5_3:
  + 1 U5 - 1 U3 + 14 X_5_3
  <= 13
 mtz_5_4:
  + 1 U5 - 1 U4 + 14 X_5_4
  <= 13
 mtz_5_6:
  + 1 U5 - 1 U6 + 14 X_5_6
  <= 13
 mtz_5_7:
  + 1 U5 - 1 U7 + 14 X_5_7
  <= 13
 mtz_5_8:
  + 1 U5 - 1 U8 + 14 X_5_8
  <= 13
 mtz_5_9:
  + 1 U5 - 1 U9 + 14 X_5_9
  <= 13
 mtz_5_10:
  + 1 U5 - 1 U10 + 14 X_5_10
  <= 13
 mtz_5_11:
  + 1 U5 - 1 U11 + 14 X_5_11
  <= 13
 mtz_5_12:
  + 1 U5 - 1 U12 + 14 X_5_12
  <= 13
 mtz_5_13:
  + 1 U5 - 1 U13 + 14 X_5_13
  <= 13
 mtz_5_14:
  + 1 U5 - 1 U14 + 14 X_5_14
  <= 13
 mtz_6_1:
  + 1 U6 - 1 U1 + 14 X_6_1
  <= 13
 mtz_6_2:
  + 1 U6 - 1 U2 + 14 X_6_2
  <= 13
 mtz_6_3:
  + 1 U6 - 1 U3 + 14 X_6_3
  <= 13
 mtz_6_4:
  + 1 U6 - 1 U4 + 14 X_6_4
  <= 13
 mtz_6_5:
  + 1 U6 - 1 U5 + 14 X_6_5
  <= 13
 mtz_6_7:
  + 1 U6 - 1 U7 + 14 X_6_7
  <= 13
 mtz_6_8:
  + 1 U6 - 1 U8 + 14 X_6_8
  <= 13
 mtz_6_9:
  + 1 U6 - 1 U9 + 14 X_6_9
  <= 13
 mtz_6_10:
  + 1 U6 - 1 U10 + 14 X_6_10
  <= 13
 mtz_6_11:
  + 1 U6 - 1 U11 + 14 X_6_11
  <= 13
 mtz_6_12:
  + 1 U6 - 1 U12 + 14 X_6_12
  <= 13
 mtz_6_13:
  + 1 U6 - 1 U13 + 14 X_6_13
  <= 13
 mtz_6_14:
  + 1 U6 - 1 U14 + 14 X_6_14
  <= 13
 mtz_7_1:
  + 1 U7 - 1 U1 + 14 X_7_1
  <= 13
 mtz_7_2:
  + 1 U7 - 1 U2 + 14 X_7_2
  <= 13
 mtz_7_3:
  + 1 U7 - 1 U3 + 14 X_7_3
  <= 13
 mtz_7_4:
  + 1 U7 - 1 U4 + 14 X_7_4
  <= 13
 mtz_7_5:
  + 1 U7 - 1 U5 + 14 X_7_5
  <= 13
 mtz_7_6:
  + 1 U7 - 1 U6 + 14 X_7_6
  <= 13
 mtz_7_8:
  + 1 U7 - 1 U8 + 14 X_7_8
  <= 13
 mtz_7_9:
  + 1 U7 - 1 U9 + 14 X_7_9
  <= 13
 mtz_7_10:
  + 1 U7 - 1 U10 + 14 X_7_10
  <= 13
 mtz_7_11:
  + 1 U7 - 1 U11 + 14 X_7_11
  <= 13
 mtz_7_12:
  + 1 U7 - 1 U12 + 14 X_7_12
  <= 13
 mtz_7_13:
  + 1 U7 - 1 U13 + 14 X_7_13
  <= 13
 mtz_7_14:
  + 1 U7 - 1 U14 + 14 X_7_14
  <= 13
 mtz_8_1:
  + 1 U8 - 1 U1 + 14 X_8_1
  <= 13
 mtz_8_2:
  + 1 U8 - 1 U2 + 14 X_8_2
  <= 13
 mtz_8_3:
  + 1 U8 - 1 U3 + 14 X_8_3
  <= 13
 mtz_8_4:
  + 1 U8 - 1 U4 + 14 X_8_4
  <= 13
 mtz_8_5:
  + 1 U8 - 1 U5 + 14 X_8_5
  <= 13
 mtz_8_6:
  + 1 U8 - 1 U6 + 14 X_8_6
  <= 13
 mtz_8_7:
  + 1 U8 - 1 U7 + 14 X_8_7
  <= 13
 mtz_8_9:
  + 1 U8 - 1 U9 + 14 X_8_9
  <= 13
 mtz_8_10:
  + 1 U8 - 1 U10 + 14 X_8_10
  <= 13
 mtz_8_11:
  + 1 U8 - 1 U11 + 14 X_8_11
  <= 13
 mtz_8_12:
  + 1 U8 - 1 U12 + 14 X_8_12
  <= 13
 mtz_8_13:
  + 1 U8 - 1 U13 + 14 X_8_13
  <= 13
 mtz_8_14:
  + 1 U8 - 1 U14 + 14 X_8_14
  <= 13
 mtz_9_1:
  + 1 U9 - 1 U1 + 14 X_9_1
  <= 13
 mtz_9_2:
  + 1 U9 - 1 U2 + 14 X_9_2
  <= 13
 mtz_9_3:
  + 1 U9 - 1 U3 + 14 X_9_3
  <= 13
 mtz_9_4:
  + 1 U9 - 1 U4 + 14 X_9_4
  <= 13
 mtz_9_5:
  + 1 U9 - 1 U5 + 14 X_9_5
  <= 13
 mtz_9_6:
  + 1 U9 - 1 U6 + 14 X_9_6
  <= 13
 mtz_9_7:
  + 1 U9 - 1 U7 + 14 X_9_7
  <= 13
 mtz_9_8:
  + 1 U9 - 1 U8 + 14 X_9_8
  <= 13
 mtz_9_10:
  + 1 U9 - 1 U10 + 14 X_9_10
  <= 13
 mtz_9_11:
  + 1 U9 - 1 U11 + 14 X_9_11
  <= 13
 mtz_9_12:
  + 1 U9 - 1 U12 + 14 X_9_12
  <= 13
 mtz_9_13:
  + 1 U9 - 1 U13 + 14 X_9_13
  <= 13
 mtz_9_14:
  + 1 U9 - 1 U14 + 14 X_9_14
  <= 13
 mtz_10_1:
  + 1 U10 - 1 U1 + 14 X_10_1
  <= 13
 mtz_10_2:
  + 1 U10 - 1 U2 + 14 X_10_2
  <= 13
 mtz_10_3:
  + 1 U10 - 1 U3 + 14 X_10_3
  <= 13
 mtz_10_4:
  + 1 U10 - 1 U4 + 14 X_10_4
  <= 13
 mtz_10_5:
  + 1 U10 - 1 U5 + 14 X_10_5
  <= 13
 mtz_10_6:
  + 1 U10 - 1 U6 + 14 X_10_6
  <= 13
 mtz_10_7:
  + 1 U10 - 1 U7 + 14 X_10_7
  <= 13
 mtz_10_8:
  + 1 U10 - 1 U8 + 14 X_10_8
  <= 13
 mtz_10_9:
  + 1 U10 - 1 U9 + 14 X_10_9
  <= 13
 mtz_10_11:
  + 1 U10 - 1 U11 + 14 X_10_11
  <= 13
 mtz_10_12:
  + 1 U10 - 1 U12 + 14 X_10_12
  <= 13
 mtz_10_13:
  + 1 U10 - 1 U13 + 14 X_10_13
  <= 13
 mtz_10_14:
  + 1 U10 - 1 U14 + 14 X_10_14
  <= 13
 mtz_11_1:
  + 1 U11 - 1 U1 + 14 X_11_1
  <= 13
 mtz_11_2:
  + 1 U11 - 1 U2 + 14 X_11_2
  <= 13
 mtz_11_3:
  + 1 U11 - 1 U3 + 14 X_11_3
  <= 13
 mtz_11_4:
  + 1 U11 - 1 U4 + 14 X_11_4
  <= 13
 mtz_11_5:
  + 1 U11 - 1 U5 + 14 X_11_5
  <= 13
 mtz_11_6:
  + 1 U11 - 1 U6 + 14 X_11_6
  <= 13
 mtz_11_7:
  + 1 U11 - 1 U7 + 14 X_11_7
  <= 13
 mtz_11_8:
  + 1 U11 - 1 U8 + 14 X_11_8
  <= 13
 mtz_11_9:
  + 1 U11 - 1 U9 + 14 X_11_9
  <= 13
 mtz_11_10:
  + 1 U11 - 1 U10 + 14 X_11_10
  <= 13
 mtz_11_12:
  + 1 U11 - 1 U12 + 14 X_11_12
  <= 13
 mtz_11_13:
  + 1 U11 - 1 U13 + 14 X_11_13
  <= 13
 mtz_11_14:
  + 1 U11 - 1 U14 + 14 X_11_14
  <= 13
 mtz_12_1:
  + 1 U12 - 1 U1 + 14 X_12_1
  <= 13
 mtz_12_2:
  + 1 U12 - 1 U2 + 14 X_12_2
  <= 13
 mtz_12_3:
  + 1 U12 - 1 U3 + 14 X_12_3
  <= 13
 mtz_12_4:
  + 1 U12 - 1 U4 + 14 X_12_4
  <= 13
 mtz_12_5:
  + 1 U12 - 1 U5 + 14 X_12_5
  <= 13
 mtz_12_6:
  + 1 U12 - 1 U6 + 14 X_12_6
  <= 13
 mtz_12_7:
  + 1 U12 - 1 U7 + 14 X_12_7
  <= 13
 mtz_12_8:
  + 1 U12 - 1 U8 + 14 X_12_8
  <= 13
 mtz_12_9:
  + 1 U12 - 1 U9 + 14 X_12_9
  <= 13
 mtz_12_10:
  + 1 U12 - 1 U10 + 14 X_12_10
  <= 13
 mtz_12_11:
  + 1 U12 - 1 U11 + 14 X_12_11
  <= 13
 mtz_12_13:
  + 1 U12 - 1 U13 + 14 X_12_13
  <= 13
 mtz_12_14:
  + 1 U12 - 1 U14 + 14 X_12_14
  <= 13
 mtz_13_1:
  + 1 U13 - 1 U1 + 14 X_13_1
  <= 13
 mtz_13_2:
  + 1 U13 - 1 U2 + 14 X_13_2
  <= 13
 mtz_13_3:
  + 1 U13 - 1 U3 + 14 X_13_3
  <= 13
 mtz_13_4:
  + 1 U13 - 1 U4 + 14 X_13_4
  <= 13
 mtz_13_5:
  + 1 U13 - 1 U5 + 14 X_13_5
  <= 13
 mtz_13_6:
  + 1 U13 - 1 U6 + 14 X_13_6
  <= 13
 mtz_13_7:
  + 1 U13 - 1 U7 + 14 X_13_7
  <= 13
 mtz_13_8:
  + 1 U13 - 1 U8 + 14 X_13_8
  <= 13
 mtz_13_9:
  + 1 U13 - 1 U9 + 14 X_13_9
  <= 13
 mtz_13_10:
  + 1 U13 - 1 U10 + 14 X_13_10
  <= 13
 mtz_13_11:
  + 1 U13 - 1 U11 + 14 X_13_11
  <= 13
 mtz_13_12:
  + 1 U13 - 1 U12 + 14 X_13_12
  <= 13
 mtz_13_14:
  + 1 U13 - 1 U14 + 14 X_13_14
  <= 13
 mtz_14_1:
  + 1 U14 - 1 U1 + 14 X_14_1
  <= 13
 mtz_14_2:
  + 1 U14 - 1 U2 + 14 X_14_2
  <= 13
 mtz_14_3:
  + 1 U14 - 1 U3 + 14 X_14_3
  <= 13
 mtz_14_4:
  + 1 U14 - 1 U4 + 14 X_14_4
  <= 13
 mtz_14_5:
  + 1 U14 - 1 U5 + 14 X_14_5
  <= 13
 mtz_14_6:
  + 1 U14 - 1 U6 + 14 X_14_6
  <= 13
 mtz_14_7:
  + 1 U14 - 1 U7 + 14 X_14_7
  <= 13
 mtz_14_8:
  + 1 U14 - 1 U8 + 14 X_14_8
  <= 13
 mtz_14_9:
  + 1 U14 - 1 U9 + 14 X_14_9
  <= 13
 mtz_14_10:
  + 1 U14 - 1 U10 + 14 X_14_10
  <= 13
 mtz_14_11:
  + 1 U14 - 1 U11 + 14 X_14_11
  <= 13
 mtz_14_12:
  + 1 U14 - 1 U12 + 14 X_14_12
  <= 13
 mtz_14_13:
  + 1 U14 - 1 U13 + 14 X_14_13
  <= 13
 obj1:
  + 243 X_0_1 + 374 X_0_2 + 291 X_0_3 + 680 X_0_4 + 861 X_0_5 + 129 X_0_6 + 436 X_0_7 + 577 X_0_8
  + 417 X_0_9 + 358 X_0_10 + 370 X_0_11 + 218 X_0_12 + 76 X_0_13 + 620 X_0_14 + 243 X_1_0 + 490 X_1_2
  + 360 X_1_3 + 803 X_1_4 + 952 X_1_5 + 357 X_1_6 + 206 X_1_7 + 521 X_1_8 + 632 X_1_9 + 580 X_1_10
  + 612 X_1_11 + 280 X_1_12 + 281 X_1_13 + 743 X_1_14 + 374 X_2_0 + 490 X_2_1 + 136 X_2_3 + 315 X_2_4
  + 487 X_2_5 + 292 X_2_6 + 576 X_2_7 + 367 X_2_8 + 657 X_2_9 + 594 X_2_10 + 421 X_2_11 + 592 X_2_12
  + 298 X_2_13 + 255 X_2_14 + 291 X_3_0 + 360 X_3_1 + 136 X_3_2 + 443 X_3_4 + 596 X_3_5 + 256 X_3_6
  + 441 X_3_7 + 317 X_3_8 + 647 X_3_9 + 583 X_3_10 + 462 X_3_11 + 501 X_3_12 + 226 X_3_13 + 383 X_3_14
  + 680 X_4_0 + 803 X_4_1 + 315 X_4_2 + 443 X_4_3 + 205 X_4_5 + 577 X_4_6 + 865 X_4_7 + 513 X_4_8
  + 875 X_4_9 + 819 X_4_10 + 590 X_4_11 + 897 X_4_12 + 603 X_4_13 + 60 X_4_14 + 861 X_5_0 + 952 X_5_1
  + 487 X_5_2 + 596 X_5_3 + 205 X_5_4 + 767 X_5_6 + 978 X_5_7 + 559 X_5_8 + 1080 X_5_9 + 1023 X_5_10
  + 796 X_5_11 + 1079 X_5_12 + 785 X_5_13 + 253 X_5_14 + 129 X_6_0 + 357 X_6_1 + 292 X_6_2 + 256 X_6_3
  + 577 X_6_4 + 767 X_6_5 + 532 X_6_7 + 571 X_6_8 + 392 X_6_9 + 328 X_6_10 + 261 X_6_11 + 327 X_6_12
  + 77 X_6_13 + 519 X_6_14 + 436 X_7_0 + 206 X_7_1 + 576 X_7_2 + 441 X_7_3 + 865 X_7_4 + 978 X_7_5
  + 532 X_7_6 + 461 X_7_8 + 838 X_7_9 + 784 X_7_10 + 793 X_7_11 + 479 X_7_12 + 455 X_7_13 + 808 X_7_14
  + 577 X_8_0 + 521 X_8_1 + 367 X_8_2 + 317 X_8_3 + 513 X_8_4 + 559 X_8_5 + 571 X_8_6 + 461 X_8_7
  + 963 X_8_9 + 899 X_8_10 + 773 X_8_11 + 756 X_8_12 + 528 X_8_13 + 472 X_8_14 + 417 X_9_0 + 632 X_9_1
  + 657 X_9_2 + 647 X_9_3 + 875 X_9_4 + 1080 X_9_5 + 392 X_9_6 + 838 X_9_7 + 963 X_9_8 + 64 X_9_10
  + 292 X_9_11 + 400 X_9_12 + 441 X_9_13 + 828 X_9_14 + 358 X_10_0 + 580 X_10_1 + 594 X_10_2 + 583 X_10_3
  + 819 X_10_4 + 1023 X_10_5 + 328 X_10_6 + 784 X_10_7 + 899 X_10_8 + 64 X_10_9 + 245 X_10_11 + 364 X_10_12
  + 378 X_10_13 + 771 X_10_14 + 370 X_11_0 + 612 X_11_1 + 421 X_11_2 + 462 X_11_3 + 590 X_11_4 + 796 X_11_5
  + 261 X_11_6 + 793 X_11_7 + 773 X_11_8 + 292 X_11_9 + 245 X_11_10 + 498 X_11_12 + 338 X_11_13 + 548 X_11_14
  + 218 X_12_0 + 280 X_12_1 + 592 X_12_2 + 501 X_12_3 + 897 X_12_4 + 1079 X_12_5 + 327 X_12_6 + 479 X_12_7
  + 756 X_12_8 + 400 X_12_9 + 364 X_12_10 + 498 X_12_11 + 294 X_12_13 + 838 X_12_14 + 76 X_13_0 + 281 X_13_1
  + 298 X_13_2 + 226 X_13_3 + 603 X_13_4 + 785 X_13_5 + 77 X_13_6 + 455 X_13_7 + 528 X_13_8 + 441 X_13_9
  + 378 X_13_10 + 338 X_13_11 + 294 X_13_12 + 544 X_13_14 + 620 X_14_0 + 743 X_14_1 + 255 X_14_2 + 383 X_14_3
  + 60 X_14_4 + 253 X_14_5 + 519 X_14_6 + 808 X_14_7 + 472 X_14_8 + 828 X_14_9 + 771 X_14_10 + 548 X_14_11
  + 838 X_14_12 + 544 X_14_13
  <= 1
 obj2:
  + 133 X_0_1 + 627 X_0_2 + 205 X_0_3 + 628 X_0_4 + 66 X_0_5 + 136 X_0_6 + 940 X_0_7 + 675 X_0_8
  + 578 X_0_9 + 727 X_0_10 + 650 X_0_11 + 789 X_0_12 + 184 X_0_13 + 568 X_0_14 + 133 X_1_0 + 655 X_1_2
  + 330 X_1_3 + 750 X_1_4 + 182 X_1_5 + 70 X_1_6 + 1032 X_1_7 + 681 X_1_8 + 689 X_1_9 + 824 X_1_10
  + 644 X_1_11 + 838 X_1_12 + 51 X_1_13 + 553 X_1_14 + 627 X_2_0 + 655 X_2_1 + 720 X_2_3 + 608 X_2_4
  + 675 X_2_5 + 717 X_2_6 + 551 X_2_7 + 115 X_2_8 + 476 X_2_9 + 443 X_2_10 + 168 X_2_11 + 208 X_2_12
  + 677 X_2_13 + 214 X_2_14 + 205 X_3_0 + 330 X_3_1 + 720 X_3_2 + 523 X_3_4 + 148 X_3_5 + 304 X_3_6
  + 907 X_3_7 + 792 X_3_8 + 517 X_3_9 + 690 X_3_10 + 783 X_3_11 + 843 X_3_12 + 378 X_3_13 + 715 X_3_14
  + 628 X_4_0 + 750 X_4_1 + 608 X_4_2 + 523 X_4_3 + 616 X_4_5 + 764 X_4_6 + 442 X_4_7 + 722 X_4_8
  + 132 X_4_9 + 261 X_4_10 + 760 X_4_11 + 587 X_4_12 + 799 X_4_13 + 753 X_4_14 + 66 X_5_0 + 182 X_5_1
  + 675 X_5_2 + 148 X_5_3 + 616 X_5_4 + 161 X_5_6 + 953 X_5_7 + 729 X_5_8 + 580 X_5_9 + 738 X_5_10
  + 708 X_5_11 + 828 X_5_12 + 230 X_5_13 + 629 X_5_14 + 136 X_6_0 + 70 X_6_1 + 717 X_6_2 + 304 X_6_3
  + 764 X_6_4 + 161 X_6_5 + 1070 X_6_7 + 747 X_6_8 + 714 X_6_9 + 859 X_6_10 + 712 X_6_11 + 895 X_6_12
  + 91 X_6_13 + 622 X_6_14 + 940 X_7_0 + 1032 X_7_1 + 551 X_7_2 + 907 X_7_3 + 442 X_7_4 + 953 X_7_5
  + 1070 X_7_6 + 648 X_7_8 + 392 X_7_9 + 217 X_7_10 + 714 X_7_11 + 384 X_7_12 + 1072 X_7_13 + 762 X_7_14
  + 675 X_8_0 + 681 X_8_1 + 115 X_8_2 + 792 X_8_3 + 722 X_8_4 + 729 X_8_5 + 747 X_8_6 + 648 X_8_7
  + 589 X_8_9 + 555 X_8_10 + 70 X_8_11 + 276 X_8_12 + 695 X_8_13 + 156 X_8_14 + 578 X_9_0 + 689 X_9_1
  + 476 X_9_2 + 517 X_9_3 + 132 X_9_4 + 580 X_9_5 + 714 X_9_6 + 392 X_9_7 + 589 X_9_8 + 179 X_9_10
  + 629 X_9_11 + 464 X_9_12 + 735 X_9_13 + 626 X_9_14 + 727 X_10_0 + 824 X_10_1 + 443 X_10_2 + 690 X_10_3
  + 261 X_10_4 + 738 X_10_5 + 859 X_10_6 + 217 X_10_7 + 555 X_10_8 + 179 X_10_9 + 610 X_10_11 + 354 X_10_12
  + 867 X_10_13 + 635 X_10_14 + 650 X_11_0 + 644 X_11_1 + 168 X_11_2 + 783 X_11_3 + 760 X_11_4 + 708 X_11_5
  + 712 X_11_6 + 714 X_11_7 + 70 X_11_8 + 629 X_11_9 + 610 X_11_10 + 347 X_11_12 + 653 X_11_13 + 97 X_11_14
  + 789 X_12_0 + 838 X_12_1 + 208 X_12_2 + 843 X_12_3 + 587 X_12_4 + 828 X_12_5 + 895 X_12_6 + 384 X_12_7
  + 276 X_12_8 + 464 X_12_9 + 354 X_12_10 + 347 X_12_11 + 865 X_12_13 + 416 X_12_14 + 184 X_13_0 + 51 X_13_1
  + 677 X_13_2 + 378 X_13_3 + 799 X_13_4 + 230 X_13_5 + 91 X_13_6 + 1072 X_13_7 + 695 X_13_8 + 735 X_13_9
  + 867 X_13_10 + 653 X_13_11 + 865 X_13_12 + 559 X_13_14 + 568 X_14_0 + 553 X_14_1 + 214 X_14_2 + 715 X_14_3
  + 753 X_14_4 + 629 X_14_5 + 622 X_14_6 + 762 X_14_7 + 156 X_14_8 + 626 X_14_9 + 635 X_14_10 + 97 X_14_11
  + 416 X_14_12 + 559 X_14_13
  <= 2
 obj3:
  + 484 X_0_1 + 430 X_0_2 + 49 X_0_3 + 617 X_0_4 + 687 X_0_5 + 289 X_0_6 + 122 X_0_7 + 696 X_0_8
  + 335 X_0_9 + 576 X_0_10 + 480 X_0_11 + 218 X_0_12 + 626 X_0_13 + 437 X_0_14 + 484 X_1_0 + 332 X_1_2
  + 508 X_1_3 + 260 X_1_4 + 333 X_1_5 + 591 X_1_6 + 554 X_1_7 + 521 X_1_8 + 508 X_1_9 + 155 X_1_10
  + 859 X_1_11 + 334 X_1_12 + 211 X_1_13 + 850 X_1_14 + 430 X_2_0 + 332 X_2_1 + 419 X_2_3 + 249 X_2_4
  + 295 X_2_5 + 352 X_2_6 + 547 X_2_7 + 821 X_2_8 + 651 X_2_9 + 284 X_2_10 + 906 X_2_11 + 214 X_2_12
  + 303 X_2_13 + 867 X_2_14 + 49 X_3_0 + 508 X_3_1 + 419 X_3_2 + 621 X_3_4 + 688 X_3_5 + 242 X_3_6
  + 156 X_3_7 + 744 X_3_8 + 384 X_3_9 + 589 X_3_10 + 506 X_3_11 + 215 X_3_12 + 637 X_3_13 + 456 X_3_14
  + 617 X_4_0 + 260 X_4_1 + 249 X_4_2 + 621 X_4_3 + 77 X_4_5 + 599 X_4_6 + 718 X_4_7 + 775 X_4_8
  + 741 X_4_9 + 111 X_4_10 + 1059 X_4_11 + 407 X_4_12 + 79 X_4_13 + 1036 X_4_14 + 687 X_5_0 + 333 X_5_1
  + 295 X_5_2 + 688 X_5_3 + 77 X_5_4 + 647 X_5_6 + 790 X_5_7 + 842 X_5_8 + 818 X_5_9 + 179 X_5_10
  + 1135 X_5_11 + 473 X_5_12 + 131 X_5_13 + 1110 X_5_14 + 289 X_6_0 + 591 X_6_1 + 352 X_6_2 + 242 X_6_3
  + 599 X_6_4 + 647 X_6_5 + 395 X_6_7 + 947 X_6_8 + 622 X_6_9 + 611 X_6_10 + 721 X_6_11 + 261 X_6_12
  + 643 X_6_13 + 659 X_6_14 + 122 X_7_0 + 554 X_7_1 + 547 X_7_2 + 156 X_7_3 + 718 X_7_4 + 790 X_7_5
  + 395 X_7_6 + 665 X_7_8 + 262 X_7_9 + 665 X_7_10 + 360 X_7_11 + 332 X_7_12 + 718 X_7_13 + 321 X_7_14
  + 696 X_8_0 + 521 X_8_1 + 821 X_8_2 + 744 X_8_3 + 775 X_8_4 + 842 X_8_5 + 947 X_8_6 + 665 X_8_7
  + 420 X_8_9 + 664 X_8_10 + 753 X_8_11 + 709 X_8_12 + 711 X_8_13 + 796 X_8_14 + 335 X_9_0 + 508 X_9_1
  + 651 X_9_2 + 384 X_9_3 + 741 X_9_4 + 818 X_9_5 + 622 X_9_6 + 262 X_9_7 + 420 X_9_8 + 655 X_9_10
  + 377 X_9_11 + 459 X_9_12 + 713 X_9_13 + 397 X_9_14 + 576 X_10_0 + 155 X_10_1 + 284 X_10_2 + 589 X_10_3
  + 111 X_10_4 + 179 X_10_5 + 611 X_10_6 + 665 X_10_7 + 664 X_10_8 + 655 X_10_9 + 992 X_10_11 + 384 X_10_12
  + 57 X_10_13 + 976 X_10_14 + 480 X_11_0 + 859 X_11_1 + 906 X_11_2 + 506 X_11_3 + 1059 X_11_4 + 1135 X_11_5
  + 721 X_11_6 + 360 X_11_7 + 753 X_11_8 + 377 X_11_9 + 992 X_11_10 + 691 X_11_12 + 1048 X_11_13 + 82 X_11_14
  + 218 X_12_0 + 334 X_12_1 + 214 X_12_2 + 215 X_12_3 + 407 X_12_4 + 473 X_12_5 + 261 X_12_6 + 332 X_12_7
  + 709 X_12_8 + 459 X_12_9 + 384 X_12_10 + 691 X_12_11 + 428 X_12_13 + 654 X_12_14 + 626 X_13_0 + 211 X_13_1
  + 303 X_13_2 + 637 X_13_3 + 79 X_13_4 + 131 X_13_5 + 643 X_13_6 + 718 X_13_7 + 711 X_13_8 + 713 X_13_9
  + 57 X_13_10 + 1048 X_13_11 + 428 X_13_12 + 1031 X_13_14 + 437 X_14_0 + 850 X_14_1 + 867 X_14_2 + 456 X_14_3
  + 1036 X_14_4 + 1110 X_14_5 + 659 X_14_6 + 321 X_14_7 + 796 X_14_8 + 397 X_14_9 + 976 X_14_10 + 82 X_14_11
  + 654 X_14_12 + 1031 X_14_13
  <= 3
 obj4:
  + 195 X_0_1 + 60 X_0_2 + 541 X_0_3 + 359 X_0_4 + 370 X_0_5 + 421 X_0_6 + 114 X_0_7 + 362 X_0_8
  + 682 X_0_9 + 490 X_0_10 + 442 X_0_11 + 564 X_0_12 + 296 X_0_13 + 109 X_0_14 + 195 X_1_0 + 135 X_1_2
  + 581 X_1_3 + 530 X_1_4 + 532 X_1_5 + 455 X_1_6 + 207 X_1_7 + 196 X_1_8 + 870 X_1_9 + 489 X_1_10
  + 470 X_1_11 + 623 X_1_12 + 489 X_1_13 + 169 X_1_14 + 60 X_2_0 + 135 X_2_1 + 538 X_2_3 + 405 X_2_4
  + 422 X_2_5 + 431 X_2_6 + 110 X_2_7 + 311 X_2_8 + 741 X_2_9 + 490 X_2_10 + 434 X_2_11 + 584 X_2_12
  + 353 X_2_13 + 86 X_2_14 + 541 X_3_0 + 581 X_3_1 + 538 X_3_2 + 431 X_3_4 + 829 X_3_5 + 963 X_3_6
  + 431 X_3_7 + 765 X_3_8 + 978 X_3_9 + 1028 X_3_10 + 110 X_3_11 + 1101 X_3_12 + 558 X_3_13 + 452 X_3_14
  + 359 X_4_0 + 530 X_4_1 + 405 X_4_2 + 431 X_4_3 + 455 X_4_5 + 704 X_4_6 + 327 X_4_7 + 717 X_4_8
  + 546 X_4_9 + 792 X_4_10 + 398 X_4_11 + 795 X_4_12 + 154 X_4_13 + 365 X_4_14 + 370 X_5_0 + 532 X_5_1
  + 422 X_5_2 + 829 X_5_3 + 455 X_5_4 + 346 X_5_6 + 466 X_5_7 + 621 X_5_8 + 376 X_5_9 + 443 X_5_10
  + 754 X_5_11 + 367 X_5_12 + 301 X_5_13 + 475 X_5_14 + 421 X_6_0 + 455 X_6_1 + 431 X_6_2 + 963 X_6_3
  + 704 X_6_4 + 346 X_6_5 + 532 X_6_7 + 421 X_6_8 + 707 X_6_9 + 97 X_6_10 + 862 X_6_11 + 172 X_6_12
  + 569 X_6_13 + 516 X_6_14 + 114 X_7_0 + 207 X_7_1 + 110 X_7_2 + 431 X_7_3 + 327 X_7_4 + 466 X_7_5
  + 532 X_7_6 + 401 X_7_8 + 742 X_7_9 + 597 X_7_10 + 329 X_7_11 + 678 X_7_12 + 317 X_7_13 + 38 X_7_14
  + 362 X_8_0 + 196 X_8_1 + 311 X_8_2 + 765 X_8_3 + 717 X_8_4 + 621 X_8_5 + 421 X_8_6 + 401 X_8_7
  + 988 X_8_9 + 415 X_8_10 + 654 X_8_11 + 592 X_8_12 + 655 X_8_13 + 364 X_8_14 + 682 X_9_0 + 870 X_9_1
  + 741 X_9_2 + 978 X_9_3 + 546 X_9_4 + 376 X_9_5 + 707 X_9_6 + 742 X_9_7 + 988 X_9_8 + 799 X_9_10
  + 939 X_9_11 + 670 X_9_12 + 443 X_9_13 + 765 X_9_14 + 490 X_10_0 + 489 X_10_1 + 490 X_10_2 + 1028 X_10_3
  + 792 X_10_4 + 443 X_10_5 + 97 X_10_6 + 597 X_10_7 + 415 X_10_8 + 799 X_10_9 + 924 X_10_11 + 198 X_10_12
  + 662 X_10_13 + 576 X_10_14 + 442 X_11_0 + 470 X_11_1 + 434 X_11_2 + 110 X_11_3 + 398 X_11_4 + 754 X_11_5
  + 862 X_11_6 + 329 X_11_7 + 654 X_11_8 + 939 X_11_9 + 924 X_11_10 + 1006 X_11_12 + 503 X_11_13 + 348 X_11_14
  + 564 X_12_0 + 623 X_12_1 + 584 X_12_2 + 1101 X_12_3 + 795 X_12_4 + 367 X_12_5 + 172 X_12_6 + 678 X_12_7
  + 592 X_12_8 + 670 X_12_9 + 198 X_12_10 + 1006 X_12_11 + 647 X_12_13 + 666 X_12_14 + 296 X_13_0 + 489 X_13_1
  + 353 X_13_2 + 558 X_13_3 + 154 X_13_4 + 301 X_13_5 + 569 X_13_6 + 317 X_13_7 + 655 X_13_8 + 443 X_13_9
  + 662 X_13_10 + 503 X_13_11 + 647 X_13_12 + 347 X_13_14 + 109 X_14_0 + 169 X_14_1 + 86 X_14_2 + 452 X_14_3
  + 365 X_14_4 + 475 X_14_5 + 516 X_14_6 + 38 X_14_7 + 364 X_14_8 + 765 X_14_9 + 576 X_14_10 + 348 X_14_11
  + 666 X_14_12 + 347 X_14_13
  <= 4
 obj5:
  + 122 X_0_1 + 419 X_0_2 + 103 X_0_3 + 510 X_0_4 + 604 X_0_5 + 611 X_0_6 + 351 X_0_7 + 188 X_0_8
  + 366 X_0_9 + 483 X_0_10 + 563 X_0_11 + 239 X_0_12 + 412 X_0_13 + 215 X_0_14 + 122 X_1_0 + 322 X_1_2
  + 203 X_1_3 + 460 X_1_4 + 597 X_1_5 + 494 X_1_6 + 252 X_1_7 + 65 X_1_8 + 303 X_1_9 + 539 X_1_10
  + 530 X_1_11 + 240 X_1_12 + 307 X_1_13 + 221 X_1_14 + 419 X_2_0 + 322 X_2_1 + 518 X_2_3 + 237 X_2_4
  + 861 X_2_5 + 236 X_2_6 + 401 X_2_7 + 271 X_2_8 + 521 X_2_9 + 856 X_2_10 + 760 X_2_11 + 296 X_2_12
  + 41 X_2_13 + 529 X_2_14 + 103 X_3_0 + 203 X_3_1 + 518 X_3_2 + 613 X_3_4 + 538 X_3_5 + 698 X_3_6
  + 380 X_3_7 + 267 X_3_8 + 358 X_3_9 + 385 X_3_10 + 519 X_3_11 + 336 X_3_12 + 508 X_3_13 + 171 X_3_14
  + 510 X_4_0 + 460 X_4_1 + 237 X_4_2 + 613 X_4_3 + 1050 X_4_5 + 422 X_4_6 + 616 X_4_7 + 435 X_4_8
  + 723 X_4_9 + 990 X_4_10 + 964 X_4_11 + 288 X_4_12 + 278 X_4_13 + 682 X_4_14 + 604 X_5_0 + 597 X_5_1
  + 861 X_5_2 + 538 X_5_3 + 1050 X_5_4 + 915 X_5_6 + 472 X_5_7 + 614 X_5_8 + 343 X_5_9 + 299 X_5_10
  + 138 X_5_11 + 829 X_5_12 + 829 X_5_13 + 389 X_5_14 + 611 X_6_0 + 494 X_6_1 + 236 X_6_2 + 698 X_6_3
  + 422 X_6_4 + 915 X_6_5 + 447 X_6_7 + 430 X_6_8 + 577 X_6_9 + 981 X_6_10 + 791 X_6_11 + 530 X_6_12
  + 217 X_6_13 + 658 X_6_14 + 351 X_7_0 + 252 X_7_1 + 401 X_7_2 + 380 X_7_3 + 616 X_7_4 + 472 X_7_5
  + 447 X_7_6 + 218 X_7_8 + 131 X_7_9 + 550 X_7_10 + 361 X_7_11 + 475 X_7_12 + 364 X_7_13 + 256 X_7_14
  + 188 X_8_0 + 65 X_8_1 + 271 X_8_2 + 267 X_8_3 + 435 X_8_4 + 614 X_8_5 + 430 X_8_6 + 218 X_8_7
  + 296 X_8_9 + 584 X_8_10 + 533 X_8_11 + 256 X_8_12 + 251 X_8_13 + 259 X_8_14 + 366 X_9_0 + 303 X_9_1
  + 521 X_9_2 + 358 X_9_3 + 723 X_9_4 + 343 X_9_5 + 577 X_9_6 + 131 X_9_7 + 296 X_9_8 + 436 X_9_10
  + 240 X_9_11 + 543 X_9_12 + 487 X_9_13 + 195 X_9_14 + 483 X_10_0 + 539 X_10_1 + 856 X_10_2 + 385 X_10_3
  + 990 X_10_4 + 299 X_10_5 + 981 X_10_6 + 550 X_10_7 + 584 X_10_8 + 436 X_10_9 + 386 X_10_11 + 722 X_10_12
  + 834 X_10_13 + 328 X_10_14 + 563 X_11_0 + 530 X_11_1 + 760 X_11_2 + 519 X_11_3 + 964 X_11_4 + 138 X_11_5
  + 791 X_11_6 + 361 X_11_7 + 533 X_11_8 + 240 X_11_9 + 386 X_11_10 + 770 X_11_12 + 725 X_11_13 + 351 X_11_14
  + 239 X_12_0 + 240 X_12_1 + 296 X_12_2 + 336 X_12_3 + 288 X_12_4 + 829 X_12_5 + 530 X_12_6 + 475 X_12_7
  + 256 X_12_8 + 543 X_12_9 + 722 X_12_10 + 770 X_12_11 + 313 X_12_13 + 442 X_12_14 + 412 X_13_0 + 307 X_13_1
  + 41 X_13_2 + 508 X_13_3 + 278 X_13_4 + 829 X_13_5 + 217 X_13_6 + 364 X_13_7 + 251 X_13_8 + 487 X_13_9
  + 834 X_13_10 + 725 X_13_11 + 313 X_13_12 + 506 X_13_14 + 215 X_14_0 + 221 X_14_1 + 529 X_14_2 + 171 X_14_3
  + 682 X_14_4 + 389 X_14_5 + 658 X_14_6 + 256 X_14_7 + 259 X_14_8 + 195 X_14_9 + 328 X_14_10 + 351 X_14_11
  + 442 X_14_12 + 506 X_14_13
  <= 5
Bounds
 1 <= U1 <= 14
 1 <= U2 <= 14
 1 <= U3 <= 14
 1 <= U4 <= 14
 1 <= U5 <= 14
 1 <= U6 <= 14
 1 <= U7 <= 14
 1 <= U8 <= 14
 1 <= U9 <= 14
 1 <= U10 <= 14
 1 <= U11 <= 14
 1 <= U12 <= 14
 1 <= U13 <= 14
 1 <= U14 <= 14
Binary
 X_0_1
 X_0_2
 X_0_3
 X_0_4
 X_0_5
 X_0_6
 X_0_7
 X_0_8
 X_0_9
 X_0_10
 X_0_11
 X_0_12
 X_0_13
 X_0_14
 X_1_0
 X_1_2
 X_1_3
 X_1_4
 X_1_5
 X_1_6
 X_1_7
 X_1_8
 X_1_9
 X_1_10
 X_1_11
 X_1_12
 X_1_13
 X_1_14
 X_2_0
 X_2_1
 X_2_3
 X_2_4
 X_2_5
 X_2_6
 X_2_7
 X_2_8
 X_2_9
 X_2_10
 X_2_11
 X_2_12
 X_2_13
 X_2_14
 X_3_0
 X_3_1
 X_3_2
 X_3_4
 X_3_5
 X_3_6
 X_3_7
 X_3_8
 X_3_9
 X_3_10
 X_3_11
 X_3_12
 X_3_13
 X_3_14
 X_4_0
 X_4_1
 X_4_2
 X_4_3
 X_4_5
 X_4_6
 X_4_7
 X_4_8
 X_4_9
 X_4_10
 X_4_11
 X_4_12
 X_4_13
 X_4_14
 X_5_0
 X_5_1
 X_5_2
 X_5_3
 X_5_4
 X_5_6
 X_5_7
 X_5_8
 X_5_9
 X_5_10
 X_5_11
 X_5_12
 X_5_13
 X_5_14
 X_6_0
 X_6_1
 X_6_2
 X_6_3
 X_6_4
 X_6_5
 X_6_7
 X_6_8
 X_6_9
 X_6_10
 X_6_11
 X_6_12
 X_6_13
 X_6_14
 X_7_0
 X_7_1
 X_7_2
 X_7_3
 X_7_4
 X_7_5
 X_7_6
 X_7_8
 X_7_9
 X_7_10
 X_7_11
 X_7_12
 X_7_13
 X_7_14
 X_8_0
 X_8_1
 X_8_2
 X_8_3
 X_8_4
 X_8_5
 X_8_6
 X_8_7
 X_8_9
 X_8_10
 X_8_11
 X_8_12
 X_8_13
 X_8_14
 X_9_0
 X_9_1
 X_9_2
 X_9_3
 X_9_4
 X_9_5
 X_9_6
 X_9_7
 X_9_8
 X_9_10
 X_9_11
 X_9_12
 X_9_13
 X_9_14
 X_10_0
 X_10_1
 X_10_2
 X_10_3
 X_10_4
 X_10_5
 X_10_6
 X_10_7
 X_10_8
 X_10_9
 X_10_11
 X_10_12
 X_10_13
 X_10_14
 X_11_0
 X_11_1
 X_11_2
 X_11_3
 X_11_4
 X_11_5
 X_11_6
 X_11_7
 X_11_8
 X_11_9
 X_11_10
 X_11_12
 X_11_13
 X_11_14
 X_12_0
 X_12_1
 X_12_2
 X_12_3
 X_12_4
 X_12_5
 X_12_6
 X_12_7
 X_12_8
 X_12_9
 X_12_10
 X_12_11
 X_12_13
 X_12_14
 X_13_0
 X_13_1
 X_13_2
 X_13_3
 X_13_4
 X_13_5
 X_13_6
 X_13_7
 X_13_8
 X_13_9
 X_13_10
 X_13_11
 X_13_12
 X_13_14
 X_14_0
 X_14_1
 X_14_2
 X_14_3
 X_14_4
 X_14_5
 X_14_6
 X_14_7
 X_14_8
 X_14_9
 X_14_10
 X_14_11
 X_14_12
 X_14_13
End
